61
150
120	3
119	2
118	1
116	2
115	1
114	3
113	2
112	1
111	1
110	1
109	1
108	1
107	1
106	4
105	3
101	1
100	1
99	3
98	1
96	1
93	2
91	1
90	2
89	1
87	1
86	3
83	2
81	4
80	2
79	2
78	1
74	1
73	1
72	1
71	2
70	1
68	1
66	1
65	2
61	1
60	1
59	4
55	1
54	1
53	1
52	2
49	1
45	1
44	2
43	2
42	1
41	1
40	1
39	2
38	2
37	1
36	1
35	2
33	3
32	1
30	3
